;symbolic execution tree
(push)
(assert (le x0 weka.core.ProtectedProperties))
(check-sat)
(push)
(assert (le x0 java.util.Properties))
(check-sat)
(push)
(assert (le x0 java.util.Properties))
(check-sat)
(pop)
(push)
(assert (not (le x0 java.util.Properties)))
(check-sat)
(pop)
(push)
(assert (le x0 java.util.Properties))
(check-sat)
(pop)
(push)
(assert (not (le x0 java.util.Properties)))
(check-sat)
(pop)
(pop)
(push)
(assert (not (le x0 java.util.Properties)))
(check-sat)
(pop)
(push)
(assert (le x0 java.util.Properties))
(check-sat)
(pop)
(push)
(assert (not (le x0 java.util.Properties)))
(check-sat)
(pop)
(push)
(assert (le x0 java.util.Properties))
(check-sat)
(push)
(assert (le x0 java.util.Properties))
(check-sat)
(pop)
(push)
(assert (not (le x0 java.util.Properties)))
(check-sat)
(pop)
(push)
(assert (le x0 java.util.Properties))
(check-sat)
(push)
(assert (le x0 java.util.Properties))
(check-sat)
(pop)
(push)
(assert (not (le x0 java.util.Properties)))
(check-sat)
(pop)
(push)
(assert (le x0 java.util.Properties))
(check-sat)
(pop)
(push)
(assert (not (le x0 java.util.Properties)))
(check-sat)
(pop)
(push)
(assert (le x0 java.util.Properties))
(check-sat)
(push)
(assert (le x0 java.util.Properties))
(check-sat)
(pop)
(push)
(assert (not (le x0 java.util.Properties)))
(check-sat)
(pop)
(pop)
(push)
(assert (not (le x0 java.util.Properties)))
(check-sat)
(pop)
(push)
(assert (le x0 java.util.Properties))
(check-sat)
(pop)
(push)
(assert (not (le x0 java.util.Properties)))
(check-sat)
(pop)
(pop)
(push)
(assert (not (le x0 java.util.Properties)))
(check-sat)
(pop)
(push)
(assert (le x0 java.util.Properties))
(check-sat)
(pop)
(push)
(assert (not (le x0 java.util.Properties)))
(check-sat)
(pop)
(push)
(assert (le x0 java.util.Properties))
(check-sat)
(push)
(assert (le x0 java.util.Properties))
(check-sat)
(pop)
(push)
(assert (not (le x0 java.util.Properties)))
(check-sat)
(pop)
(pop)
(push)
(assert (not (le x0 java.util.Properties)))
(check-sat)
(pop)
(push)
(assert (le x0 java.util.Properties))
(check-sat)
(pop)
(push)
(assert (not (le x0 java.util.Properties)))
(check-sat)
(pop)
(push)
(assert (le x0 java.util.Properties))
(check-sat)
(pop)
(push)
(assert (not (le x0 java.util.Properties)))
(check-sat)
(pop)
(pop)
(push)
(assert (not (le x0 java.util.Properties)))
(check-sat)
(pop)
(push)
(assert (le x0 weka.core.ProtectedProperties))
(check-sat)
(push)
(assert (le x0 weka.core.ProtectedProperties))
(check-sat)
(pop)
(push)
(assert (not (le x0 weka.core.ProtectedProperties)))
(check-sat)
(pop)
(push)
(assert (le x0 weka.core.ProtectedProperties))
(check-sat)
(push)
(assert (le x0 java.util.Properties))
(check-sat)
(pop)
(push)
(assert (not (le x0 java.util.Properties)))
(check-sat)
(pop)
(push)
(assert (le x0 java.util.Properties))
(check-sat)
(pop)
(push)
(assert (not (le x0 java.util.Properties)))
(check-sat)
(pop)
(push)
(assert (le x0 weka.core.ProtectedProperties))
(check-sat)
(pop)
(push)
(assert (not (le x0 weka.core.ProtectedProperties)))
(check-sat)
(pop)
(pop)
(push)
(assert (not (le x0 weka.core.ProtectedProperties)))
(check-sat)
(pop)
(push)
(assert (le x0 weka.core.ProtectedProperties))
(check-sat)
(push)
(assert (le x0 weka.core.ProtectedProperties))
(check-sat)
(pop)
(push)
(assert (not (le x0 weka.core.ProtectedProperties)))
(check-sat)
(pop)
(push)
(assert (le x0 weka.core.ProtectedProperties))
(check-sat)
(pop)
(push)
(assert (not (le x0 weka.core.ProtectedProperties)))
(check-sat)
(pop)
(pop)
(push)
(assert (not (le x0 weka.core.ProtectedProperties)))
(check-sat)
(pop)
(pop)
(push)
(assert (not (le x0 weka.core.ProtectedProperties)))
(check-sat)
(pop)
(push)
(assert (le x0 java.util.Properties))
(check-sat)
(push)
(assert (le x0 java.util.Properties))
(check-sat)
(pop)
(push)
(assert (not (le x0 java.util.Properties)))
(check-sat)
(pop)
(push)
(assert (le x0 java.util.Properties))
(check-sat)
(pop)
(push)
(assert (not (le x0 java.util.Properties)))
(check-sat)
(pop)
(push)
(assert (le x0 java.util.Properties))
(check-sat)
(push)
(assert (le x0 java.util.Properties))
(check-sat)
(pop)
(push)
(assert (not (le x0 java.util.Properties)))
(check-sat)
(pop)
(push)
(assert (le x0 java.util.Properties))
(check-sat)
(pop)
(push)
(assert (not (le x0 java.util.Properties)))
(check-sat)
(pop)
(pop)
(push)
(assert (not (le x0 java.util.Properties)))
(check-sat)
(pop)
(pop)
(push)
(assert (not (le x0 java.util.Properties)))
(check-sat)
(pop)
(push)
(assert (le x0 java.util.Properties))
(check-sat)
(pop)
(push)
(assert (not (le x0 java.util.Properties)))
(check-sat)
(pop)
(push)
(assert (le x0 weka.core.ProtectedProperties))
(check-sat)
(push)
(assert (le x0 weka.core.ProtectedProperties))
(check-sat)
(push)
(assert (le x0 java.util.Properties))
(check-sat)
(pop)
(push)
(assert (not (le x0 java.util.Properties)))
(check-sat)
(pop)
(push)
(assert (le x0 weka.core.ProtectedProperties))
(check-sat)
(push)
(assert (le x0 java.util.Properties))
(check-sat)
(pop)
(push)
(assert (not (le x0 java.util.Properties)))
(check-sat)
(pop)
(push)
(assert (le x0 weka.core.ProtectedProperties))
(check-sat)
(pop)
(push)
(assert (not (le x0 weka.core.ProtectedProperties)))
(check-sat)
(pop)
(pop)
(push)
(assert (not (le x0 weka.core.ProtectedProperties)))
(check-sat)
(pop)
(push)
(assert (le x0 weka.core.ProtectedProperties))
(check-sat)
(pop)
(push)
(assert (not (le x0 weka.core.ProtectedProperties)))
(check-sat)
(pop)
(push)
(assert (le x0 java.util.Properties))
(check-sat)
(pop)
(push)
(assert (not (le x0 java.util.Properties)))
(check-sat)
(pop)
(push)
(assert (le x0 java.util.Properties))
(check-sat)
(pop)
(push)
(assert (not (le x0 java.util.Properties)))
(check-sat)
(pop)
(pop)
(push)
(assert (not (le x0 weka.core.ProtectedProperties)))
(check-sat)
(pop)
(pop)
(push)
(assert (not (le x0 weka.core.ProtectedProperties)))
(check-sat)
(pop)
(push)
(assert (le x0 java.util.Properties))
(check-sat)
(push)
(assert (le x0 java.util.Properties))
(check-sat)
(pop)
(push)
(assert (not (le x0 java.util.Properties)))
(check-sat)
(pop)
(push)
(assert (le x0 java.util.Properties))
(check-sat)
(push)
(assert (le x0 java.util.Properties))
(check-sat)
(pop)
(push)
(assert (not (le x0 java.util.Properties)))
(check-sat)
(pop)
(pop)
(push)
(assert (not (le x0 java.util.Properties)))
(check-sat)
(pop)
(push)
(assert (le x0 java.util.Properties))
(check-sat)
(pop)
(push)
(assert (not (le x0 java.util.Properties)))
(check-sat)
(pop)
(push)
(assert (le x0 java.util.Properties))
(check-sat)
(push)
(assert (le x0 java.util.Properties))
(check-sat)
(pop)
(push)
(assert (not (le x0 java.util.Properties)))
(check-sat)
(pop)
(push)
(assert (le x0 java.util.Properties))
(check-sat)
(pop)
(push)
(assert (not (le x0 java.util.Properties)))
(check-sat)
(pop)
(pop)
(push)
(assert (not (le x0 java.util.Properties)))
(check-sat)
(pop)
(push)
(assert (le x0 java.util.Properties))
(check-sat)
(pop)
(push)
(assert (not (le x0 java.util.Properties)))
(check-sat)
(pop)
(push)
(assert (le x0 java.util.Properties))
(check-sat)
(push)
(assert (le x0 java.util.Properties))
(check-sat)
(pop)
(push)
(assert (not (le x0 java.util.Properties)))
(check-sat)
(pop)
(pop)
(push)
(assert (not (le x0 java.util.Properties)))
(check-sat)
(pop)
(push)
(assert (le x0 java.util.Properties))
(check-sat)
(pop)
(push)
(assert (not (le x0 java.util.Properties)))
(check-sat)
(pop)
(pop)
(push)
(assert (not (le x0 java.util.Properties)))
(check-sat)
(pop)
(push)
(assert (le x0 weka.core.ProtectedProperties))
(check-sat)
(pop)
(push)
(assert (not (le x0 weka.core.ProtectedProperties)))
(check-sat)
(pop)
(push)
(assert (le x0 java.util.Properties))
(check-sat)
(pop)
(push)
(assert (not (le x0 java.util.Properties)))
(check-sat)
(pop)
(pop)
(push)
(assert (not (le x0 weka.core.ProtectedProperties)))
(check-sat)
(push)
(assert (le x0 weka.core.ProtectedProperties))
(check-sat)
(pop)
(push)
(assert (not (le x0 weka.core.ProtectedProperties)))
(check-sat)
(push)
(assert (le x0 java.util.Properties))
(check-sat)
(pop)
(push)
(assert (not (le x0 java.util.Properties)))
(check-sat)
(pop)
(pop)
(push)
(assert (le x0 java.util.Properties))
(check-sat)
(pop)
(push)
(assert (not (le x0 java.util.Properties)))
(check-sat)
(pop)
(push)
(assert (le x0 java.util.Properties))
(check-sat)
(pop)
(push)
(assert (not (le x0 java.util.Properties)))
(check-sat)
(pop)
(push)
(assert (le x0 java.util.Properties))
(check-sat)
(pop)
(push)
(assert (not (le x0 java.util.Properties)))
(check-sat)
(push)
(assert (le x0 java.util.Properties))
(check-sat)
(pop)
(push)
(assert (not (le x0 java.util.Properties)))
(check-sat)
(pop)
(push)
(assert (le x0 java.util.Properties))
(check-sat)
(pop)
(push)
(assert (not (le x0 java.util.Properties)))
(check-sat)
(push)
(assert (le x0 java.util.Properties))
(check-sat)
(pop)
(push)
(assert (not (le x0 java.util.Properties)))
(check-sat)
(pop)
(pop)
(push)
(assert (le x0 java.util.Properties))
(check-sat)
(pop)
(push)
(assert (not (le x0 java.util.Properties)))
(check-sat)
(push)
(assert (le x0 java.util.Properties))
(check-sat)
(pop)
(push)
(assert (not (le x0 java.util.Properties)))
(check-sat)
(pop)
(pop)
(pop)
(pop)
